61119.0
18, 163, 176, 203, 234, 423, 448, 530, 550, 761, 766, 777, 821, 831, 1003, 1103, 1187, 1252, 1288, 1307, 1376, 1390, 1417, 1471, 1674, 1727, 2003, 2179, 2418, 2454, 2505, 2694, 2860, 2932, 2953, 2984, 3024, 3139, 3277, 3491, 3587, 3743, 3813, 3863, 4128, 4195, 4200, 4204, 4385, 4463, 4487, 4510, 4716, 4876, 4936, 4975, 5120, 5164, 5261, 5374, 5376, 5388, 5398, 5652, 5801, 5972, 6297, 6342, 6650, 6749, 6758, 6842, 6886, 6911, 7010, 7095, 7099, 7319, 7369, 7511, 7636, 7674, 7682, 7736, 7822, 7841, 7857, 7963, 7996, 8185, 8238, 8251, 8297, 8378, 8407, 8445, 8477, 8563, 8583, 8623, 8942, 9055, 9149, 9207, 9235, 9259, 9353, 9578, 9633, 9774, 9778, 9786, 9807, 9843, 9940, 9991